(set-logic QF_BV)

(declare-const __ESBMC_ptr_obj_start_0 (_ BitVec 64))

(declare-const __ESBMC_ptr_obj_end_0 (_ BitVec 64))

(declare-const __ESBMC_ptr_obj_start_1 (_ BitVec 64))

(declare-const __ESBMC_ptr_obj_end_1 (_ BitVec 64))

(declare-const |smt_conv::__ESBMC_ptr_addr_range_0..start0| (_ BitVec 64))

(declare-const |smt_conv::__ESBMC_ptr_addr_range_0..end0| (_ BitVec 64))

(declare-const |smt_conv::__ESBMC_ptr_addr_range_1..start0| (_ BitVec 64))

(declare-const |smt_conv::__ESBMC_ptr_addr_range_1..end0| (_ BitVec 64))

(declare-const |smt_conv::smt_conv::collate_array_vals::3..start0| (_ BitVec 64))

(declare-const |smt_conv::smt_conv::collate_array_vals::3..end0| (_ BitVec 64))

(declare-const |smt_conv::smt_conv::collate_array_vals::4..start0| (_ BitVec 64))

(declare-const |smt_conv::smt_conv::collate_array_vals::4..end0| (_ BitVec 64))

(declare-const |smt_conv::smt_conv::collate_array_vals::7..start0| (_ BitVec 64))

(declare-const |smt_conv::smt_conv::collate_array_vals::7..end0| (_ BitVec 64))

(declare-const |c:dijkstra2-both-nt.c@718@F@main@n?1!0&0#1| (_ BitVec 32))

(declare-const |nondet$symex::nondet91| (_ BitVec 32))

(declare-const |c:dijkstra2-both-nt.c@718@F@main@r?1!0&0#1| (_ BitVec 32))

(declare-const |goto_symex::guard?0!0&0#1| (_ BitVec 1))

(declare-const |goto_symex::guard?0!0&0#2| (_ BitVec 1))

(declare-const |goto_symex::guard?0!0&0#3| (_ BitVec 1))

(declare-const |goto_symex::guard?0!0&0#4| (_ BitVec 1))

(declare-const |goto_symex::guard?0!0&0#5| (_ BitVec 1))

(declare-const |goto_symex::guard?0!0&0#6| (_ BitVec 1))

(declare-const |goto_symex::guard?0!0&0#7| (_ BitVec 1))

(declare-const |goto_symex::guard?0!0&0#8| (_ BitVec 1))

(declare-const |goto_symex::guard?0!0&0#9| (_ BitVec 1))

(declare-const |goto_symex::guard?0!0&0#10| (_ BitVec 1))

(declare-const |goto_symex::guard?0!0&0#11| (_ BitVec 1))

(declare-const |goto_symex::guard?0!0&0#12| (_ BitVec 1))

(declare-const |goto_symex::guard?0!0&0#13| (_ BitVec 1))

(declare-const |goto_symex::guard?0!0&0#14| (_ BitVec 1))

(declare-const |goto_symex::guard?0!0&0#15| (_ BitVec 1))

(declare-const |goto_symex::guard?0!0&0#16| (_ BitVec 1))

(declare-const |goto_symex::guard?0!0&0#17| (_ BitVec 1))

(declare-const |goto_symex::guard?0!0&0#18| (_ BitVec 1))

(declare-const |goto_symex::guard?0!0&0#19| (_ BitVec 1))

(declare-const |goto_symex::guard?0!0&0#20| (_ BitVec 1))

(declare-const |goto_symex::guard?0!0&0#21| (_ BitVec 1))

(declare-const |goto_symex::guard?0!0&0#22| (_ BitVec 1))

(declare-const |goto_symex::guard?0!0&0#23| (_ BitVec 1))

(declare-const |goto_symex::guard?0!0&0#24| (_ BitVec 1))

(declare-const |goto_symex::guard?0!0&0#25| (_ BitVec 1))

(declare-const |goto_symex::guard?0!0&0#26| (_ BitVec 1))

(declare-const |goto_symex::guard?0!0&0#27| (_ BitVec 1))

(declare-const |goto_symex::guard?0!0&0#28| (_ BitVec 1))

(declare-const |goto_symex::guard?0!0&0#29| (_ BitVec 1))

(declare-const |goto_symex::guard?0!0&0#30| (_ BitVec 1))

(declare-const |goto_symex::guard?0!0&0#31| (_ BitVec 1))

(declare-const |goto_symex::guard?0!0&0#32| (_ BitVec 1))

(declare-const |goto_symex::guard?0!0&0#33| (_ BitVec 1))

(declare-const |goto_symex::guard?0!0&0#34| (_ BitVec 1))

(declare-const |goto_symex::guard?0!0&0#35| (_ BitVec 1))

(declare-const |goto_symex::guard?0!0&0#36| (_ BitVec 1))

(declare-const |goto_symex::guard?0!0&0#37| (_ BitVec 1))

(declare-const |goto_symex::guard?0!0&0#38| (_ BitVec 1))

(declare-const |goto_symex::guard?0!0&0#39| (_ BitVec 1))

(declare-const |goto_symex::guard?0!0&0#40| (_ BitVec 1))

(declare-const |goto_symex::guard?0!0&0#41| (_ BitVec 1))

(declare-const |goto_symex::guard?0!0&0#42| (_ BitVec 1))

(declare-const |goto_symex::guard?0!0&0#43| (_ BitVec 1))

(declare-const |goto_symex::guard?0!0&0#44| (_ BitVec 1))

(declare-const |goto_symex::guard?0!0&0#45| (_ BitVec 1))

(declare-const |goto_symex::guard?0!0&0#46| (_ BitVec 1))

(declare-const |goto_symex::guard?0!0&0#47| (_ BitVec 1))

(declare-const |goto_symex::guard?0!0&0#48| (_ BitVec 1))

(declare-const |goto_symex::guard?0!0&0#49| (_ BitVec 1))

(declare-const |goto_symex::guard?0!0&0#50| (_ BitVec 1))

(declare-const |goto_symex::guard?0!0&0#51| (_ BitVec 1))

(declare-const |goto_symex::guard?0!0&0#52| (_ BitVec 1))

(declare-const |goto_symex::guard?0!0&0#53| (_ BitVec 1))

(declare-const |goto_symex::guard?0!0&0#54| (_ BitVec 1))

(declare-const |goto_symex::guard?0!0&0#55| (_ BitVec 1))

(declare-const |goto_symex::guard?0!0&0#56| (_ BitVec 1))

(declare-const |goto_symex::guard?0!0&0#57| (_ BitVec 1))

(declare-const |goto_symex::guard?0!0&0#58| (_ BitVec 1))

(declare-const |goto_symex::guard?0!0&0#59| (_ BitVec 1))

(declare-const |goto_symex::guard?0!0&0#60| (_ BitVec 1))

(declare-const |goto_symex::guard?0!0&0#61| (_ BitVec 1))

(declare-const |goto_symex::guard?0!0&0#62| (_ BitVec 1))

(declare-const |goto_symex::guard?0!0&0#63| (_ BitVec 1))

(declare-const |goto_symex::guard?0!0&0#64| (_ BitVec 1))

(declare-const |goto_symex::guard?0!0&0#65| (_ BitVec 1))

(declare-const |goto_symex::guard?0!0&0#66| (_ BitVec 1))

(declare-const |goto_symex::guard?0!0&0#67| (_ BitVec 1))

(declare-const |goto_symex::guard?0!0&0#68| (_ BitVec 1))

(declare-const |goto_symex::guard?0!0&0#69| (_ BitVec 1))

(declare-const |goto_symex::guard?0!0&0#70| (_ BitVec 1))

(declare-const |goto_symex::guard?0!0&0#71| (_ BitVec 1))

(declare-const |goto_symex::guard?0!0&0#72| (_ BitVec 1))

(declare-const |goto_symex::guard?0!0&0#73| (_ BitVec 1))

(declare-const |goto_symex::guard?0!0&0#74| (_ BitVec 1))

(declare-const |goto_symex::guard?0!0&0#75| (_ BitVec 1))

(declare-const |goto_symex::guard?0!0&0#76| (_ BitVec 1))

(declare-const |goto_symex::guard?0!0&0#77| (_ BitVec 1))

(declare-const |goto_symex::guard?0!0&0#78| (_ BitVec 1))

(declare-const |goto_symex::guard?0!0&0#79| (_ BitVec 1))

(declare-const |goto_symex::guard?0!0&0#80| (_ BitVec 1))

(declare-const |goto_symex::guard?0!0&0#81| (_ BitVec 1))

(declare-const |goto_symex::guard?0!0&0#82| (_ BitVec 1))

(declare-const |goto_symex::guard?0!0&0#83| (_ BitVec 1))

(declare-const |goto_symex::guard?0!0&0#84| (_ BitVec 1))

(declare-const |goto_symex::guard?0!0&0#85| (_ BitVec 1))

(declare-const |goto_symex::guard?0!0&0#86| (_ BitVec 1))

(declare-const |goto_symex::guard?0!0&0#87| (_ BitVec 1))

(declare-const |goto_symex::guard?0!0&0#88| (_ BitVec 1))

(declare-const |goto_symex::guard?0!0&0#89| (_ BitVec 1))

(declare-const |goto_symex::guard?0!0&0#90| (_ BitVec 1))

(declare-const |goto_symex::guard?0!0&0#91| (_ BitVec 1))

(declare-const |goto_symex::guard?0!0&0#92| (_ BitVec 1))

(declare-const |goto_symex::guard?0!0&0#93| (_ BitVec 1))

(declare-const |execution_statet::guard_exec?0!0| (_ BitVec 1))

(assert 

 (= __ESBMC_ptr_obj_start_0 #b0000000000000000000000000000000000000000000000000000000000000000))

(assert 

 (= #b0000000000000000000000000000000000000000000000000000000000000000 __ESBMC_ptr_obj_end_0))

(assert 

 (= __ESBMC_ptr_obj_start_1 #b0000000000000000000000000000000000000000000000000000000000000001))

(assert 

 (= #b1111111111111111111111111111111111111111111111111111111111111111 __ESBMC_ptr_obj_end_1))

(assert 

 (= __ESBMC_ptr_obj_end_0 |smt_conv::__ESBMC_ptr_addr_range_0..end0|))

(assert 

 (= __ESBMC_ptr_obj_start_0 |smt_conv::__ESBMC_ptr_addr_range_0..start0|))

(assert 

 (= __ESBMC_ptr_obj_end_1 |smt_conv::__ESBMC_ptr_addr_range_1..end0|))

(assert 

 (= __ESBMC_ptr_obj_start_1 |smt_conv::__ESBMC_ptr_addr_range_1..start0|))

(assert 

 (= |smt_conv::smt_conv::collate_array_vals::3..end0| |smt_conv::smt_conv::collate_array_vals::4..end0|))

(assert 

 (= |smt_conv::smt_conv::collate_array_vals::3..start0| |smt_conv::smt_conv::collate_array_vals::4..start0|))

(assert 

 (= __ESBMC_ptr_obj_end_0 |smt_conv::smt_conv::collate_array_vals::7..end0|))

(assert 

 (= __ESBMC_ptr_obj_start_0 |smt_conv::smt_conv::collate_array_vals::7..start0|))

(assert 

 (= |c:dijkstra2-both-nt.c@718@F@main@n?1!0&0#1| |nondet$symex::nondet91|))

(assert 

 (= |c:dijkstra2-both-nt.c@718@F@main@n?1!0&0#1| |c:dijkstra2-both-nt.c@718@F@main@r?1!0&0#1|))

(assert 

 (= |goto_symex::guard?0!0&0#1| 

  (ite 

   (bvslt |c:dijkstra2-both-nt.c@718@F@main@n?1!0&0#1| #b00000000000000000000000000000001) #b1 #b0)))

(assert (= |goto_symex::guard?0!0&0#2| #b1))

(assert (= |goto_symex::guard?0!0&0#3| #b1))

(assert (= |goto_symex::guard?0!0&0#4| #b1))

(assert (= |goto_symex::guard?0!0&0#5| #b1))

(assert (= |goto_symex::guard?0!0&0#6| #b1))

(assert (= |goto_symex::guard?0!0&0#7| #b1))

(assert (= |goto_symex::guard?0!0&0#8| #b1))

(assert (= |goto_symex::guard?0!0&0#9| #b1))

(assert (= |goto_symex::guard?0!0&0#10| #b1))

(assert (= |goto_symex::guard?0!0&0#11| #b1))

(assert (= |goto_symex::guard?0!0&0#12| #b1))

(assert (= |goto_symex::guard?0!0&0#13| #b1))

(assert (= |goto_symex::guard?0!0&0#14| #b1))

(assert (= |goto_symex::guard?0!0&0#15| #b1))

(assert (= |goto_symex::guard?0!0&0#16| #b1))

(assert (= |goto_symex::guard?0!0&0#17| #b1))

(assert (= |goto_symex::guard?0!0&0#18| #b1))

(assert (= |goto_symex::guard?0!0&0#19| #b1))

(assert (= |goto_symex::guard?0!0&0#20| #b1))

(assert (= |goto_symex::guard?0!0&0#21| #b1))

(assert (= |goto_symex::guard?0!0&0#22| #b1))

(assert (= |goto_symex::guard?0!0&0#23| #b1))

(assert (= |goto_symex::guard?0!0&0#24| #b1))

(assert (= |goto_symex::guard?0!0&0#25| #b1))

(assert (= |goto_symex::guard?0!0&0#26| #b1))

(assert (= |goto_symex::guard?0!0&0#27| #b1))

(assert (= |goto_symex::guard?0!0&0#28| #b1))

(assert (= |goto_symex::guard?0!0&0#29| #b1))

(assert (= |goto_symex::guard?0!0&0#30| #b1))

(assert (= |goto_symex::guard?0!0&0#31| #b1))

(assert (= |goto_symex::guard?0!0&0#32| #b1))

(assert (= |goto_symex::guard?0!0&0#33| #b1))

(assert (= |goto_symex::guard?0!0&0#34| #b1))

(assert (= |goto_symex::guard?0!0&0#35| #b1))

(assert (= |goto_symex::guard?0!0&0#36| #b1))

(assert (= |goto_symex::guard?0!0&0#37| #b1))

(assert (= |goto_symex::guard?0!0&0#38| #b1))

(assert (= |goto_symex::guard?0!0&0#39| #b1))

(assert (= |goto_symex::guard?0!0&0#40| #b1))

(assert (= |goto_symex::guard?0!0&0#41| #b1))

(assert (= |goto_symex::guard?0!0&0#42| #b1))

(assert (= |goto_symex::guard?0!0&0#43| #b1))

(assert (= |goto_symex::guard?0!0&0#44| #b1))

(assert (= |goto_symex::guard?0!0&0#45| #b1))

(assert (= |goto_symex::guard?0!0&0#46| #b1))

(assert (= |goto_symex::guard?0!0&0#47| #b1))

(assert (= |goto_symex::guard?0!0&0#48| #b1))

(assert (= |goto_symex::guard?0!0&0#49| #b1))

(assert (= |goto_symex::guard?0!0&0#50| #b1))

(assert (= |goto_symex::guard?0!0&0#51| #b1))

(assert (= |goto_symex::guard?0!0&0#52| #b1))

(assert (= |goto_symex::guard?0!0&0#53| #b1))

(assert (= |goto_symex::guard?0!0&0#54| #b1))

(assert (= |goto_symex::guard?0!0&0#55| #b1))

(assert (= |goto_symex::guard?0!0&0#56| #b1))

(assert (= |goto_symex::guard?0!0&0#57| #b1))

(assert (= |goto_symex::guard?0!0&0#58| #b1))

(assert (= |goto_symex::guard?0!0&0#59| #b1))

(assert (= |goto_symex::guard?0!0&0#60| #b1))

(assert (= |goto_symex::guard?0!0&0#61| #b1))

(assert (= |goto_symex::guard?0!0&0#62| #b1))

(assert (= |goto_symex::guard?0!0&0#63| #b1))

(assert (= |goto_symex::guard?0!0&0#64| #b1))

(assert (= |goto_symex::guard?0!0&0#65| #b1))

(assert (= |goto_symex::guard?0!0&0#66| #b1))

(assert (= |goto_symex::guard?0!0&0#67| #b1))

(assert (= |goto_symex::guard?0!0&0#68| #b1))

(assert (= |goto_symex::guard?0!0&0#69| #b1))

(assert (= |goto_symex::guard?0!0&0#70| #b1))

(assert (= |goto_symex::guard?0!0&0#71| #b1))

(assert (= |goto_symex::guard?0!0&0#72| #b1))

(assert (= |goto_symex::guard?0!0&0#73| #b1))

(assert (= |goto_symex::guard?0!0&0#74| #b1))

(assert (= |goto_symex::guard?0!0&0#75| #b1))

(assert (= |goto_symex::guard?0!0&0#76| #b1))

(assert (= |goto_symex::guard?0!0&0#77| #b1))

(assert (= |goto_symex::guard?0!0&0#78| #b1))

(assert (= |goto_symex::guard?0!0&0#79| #b1))

(assert (= |goto_symex::guard?0!0&0#80| #b1))

(assert (= |goto_symex::guard?0!0&0#81| #b1))

(assert (= |goto_symex::guard?0!0&0#82| #b1))

(assert (= |goto_symex::guard?0!0&0#83| #b1))

(assert (= |goto_symex::guard?0!0&0#84| #b1))

(assert (= |goto_symex::guard?0!0&0#85| #b1))

(assert (= |goto_symex::guard?0!0&0#86| #b1))

(assert (= |goto_symex::guard?0!0&0#87| #b1))

(assert (= |goto_symex::guard?0!0&0#88| #b1))

(assert (= |goto_symex::guard?0!0&0#89| #b1))

(assert (= |goto_symex::guard?0!0&0#90| #b1))

(assert (= |goto_symex::guard?0!0&0#91| #b1))

(assert (= |goto_symex::guard?0!0&0#92| #b1))

(assert (= |goto_symex::guard?0!0&0#93| #b1))

(assert (= |execution_statet::guard_exec?0!0| #b1))

(assert (= |goto_symex::guard?0!0&0#1| #b1))

(check-sat)

(exit)
